\ENCODING=ISO-8859-1
\Problem name: Configuration2

Minimize
 obj: 0 xN(1)(1) + 6 xS(1)(1) + 0 xW(1)(1) + 3 xE(1)(1) + 0 xN(1)(2)
      + 5 xS(1)(2) + 2 xW(1)(2) + 4 xE(1)(2) + 0 xN(1)(3) + 5 xS(1)(3)
      + 3 xW(1)(3) + 3 xE(1)(3) + 0 xN(1)(4) + 4 xS(1)(4) + 2 xW(1)(4)
      + 4 xE(1)(4) + 0 xN(1)(5) + 6 xS(1)(5) + 2 xW(1)(5) + 5 xE(1)(5)
      + 0 xN(1)(6) + 5 xS(1)(6) + 4 xW(1)(6) + 4 xE(1)(6) + 0 xN(1)(7)
      + 4 xS(1)(7) + 2 xW(1)(7) + 0 xE(1)(7) + 11 xN(2)(1) + 4 xS(2)(1)
      + 0 xW(2)(1) + 4 xE(2)(1) + 11 xN(2)(2) + 6 xS(2)(2) + 2 xW(2)(2)
      + 4 xE(2)(2) + 11 xN(2)(3) + 5 xS(2)(3) + 4 xW(2)(3) + 5 xE(2)(3)
      + 10 xN(2)(4) + 6 xS(2)(4) + 3 xW(2)(4) + 4 xE(2)(4) + 11 xN(2)(5)
      + 6 xS(2)(5) + 2 xW(2)(5) + 3 xE(2)(5) + 10 xN(2)(6) + 6 xS(2)(6)
      + 4 xW(2)(6) + 3 xE(2)(6) + 10 xN(2)(7) + 5 xS(2)(7) + 4 xW(2)(7)
      + 0 xE(2)(7) + 10 xN(3)(1) + 5 xS(3)(1) + 0 xW(3)(1) + 3 xE(3)(1)
      + 11 xN(3)(2) + 6 xS(3)(2) + 4 xW(3)(2) + 5 xE(3)(2) + 11 xN(3)(3)
      + 6 xS(3)(3) + 3 xW(3)(3) + 4 xE(3)(3) + 9 xN(3)(4) + 5 xS(3)(4)
      + 3 xW(3)(4) + 3 xE(3)(4) + 9 xN(3)(5) + 4 xS(3)(5) + 2 xW(3)(5)
      + 3 xE(3)(5) + 9 xN(3)(6) + 6 xS(3)(6) + 2 xW(3)(6) + 5 xE(3)(6)
      + 10 xN(3)(7) + 4 xS(3)(7) + 3 xW(3)(7) + 0 xE(3)(7) + 11 xN(4)(1)
      + 5 xS(4)(1) + 0 xW(4)(1) + 4 xE(4)(1) + 9 xN(4)(2) + 4 xS(4)(2)
      + 3 xW(4)(2) + 4 xE(4)(2) + 10 xN(4)(3) + 5 xS(4)(3) + 2 xW(4)(3)
      + 5 xE(4)(3) + 10 xN(4)(4) + 4 xS(4)(4) + 3 xW(4)(4) + 3 xE(4)(4)
      + 9 xN(4)(5) + 5 xS(4)(5) + 4 xW(4)(5) + 3 xE(4)(5) + 9 xN(4)(6)
      + 6 xS(4)(6) + 2 xW(4)(6) + 3 xE(4)(6) + 9 xN(4)(7) + 5 xS(4)(7)
      + 3 xW(4)(7) + 0 xE(4)(7) + 10 xN(5)(1) + 4 xS(5)(1) + 0 xW(5)(1)
      + 4 xE(5)(1) + 11 xN(5)(2) + 6 xS(5)(2) + 3 xW(5)(2) + 4 xE(5)(2)
      + 10 xN(5)(3) + 4 xS(5)(3) + 3 xW(5)(3) + 4 xE(5)(3) + 9 xN(5)(4)
      + 4 xS(5)(4) + 3 xW(5)(4) + 5 xE(5)(4) + 10 xN(5)(5) + 4 xS(5)(5)
      + 4 xW(5)(5) + 5 xE(5)(5) + 10 xN(5)(6) + 4 xS(5)(6) + 4 xW(5)(6)
      + 4 xE(5)(6) + 10 xN(5)(7) + 5 xS(5)(7) + 3 xW(5)(7) + 0 xE(5)(7)
      + 10 xN(6)(1) + 6 xS(6)(1) + 0 xW(6)(1) + 5 xE(6)(1) + 9 xN(6)(2)
      + 4 xS(6)(2) + 2 xW(6)(2) + 3 xE(6)(2) + 11 xN(6)(3) + 4 xS(6)(3)
      + 4 xW(6)(3) + 4 xE(6)(3) + 10 xN(6)(4) + 5 xS(6)(4) + 2 xW(6)(4)
      + 3 xE(6)(4) + 9 xN(6)(5) + 4 xS(6)(5) + 2 xW(6)(5) + 4 xE(6)(5)
      + 9 xN(6)(6) + 5 xS(6)(6) + 3 xW(6)(6) + 5 xE(6)(6) + 11 xN(6)(7)
      + 5 xS(6)(7) + 3 xW(6)(7) + 0 xE(6)(7) + 9 xN(7)(1) + 0 xS(7)(1)
      + 0 xW(7)(1) + 5 xE(7)(1) + 10 xN(7)(2) + 0 xS(7)(2) + 2 xW(7)(2)
      + 5 xE(7)(2) + 10 xN(7)(3) + 0 xS(7)(3) + 3 xW(7)(3) + 4 xE(7)(3)
      + 9 xN(7)(4) + 0 xS(7)(4) + 3 xW(7)(4) + 4 xE(7)(4) + 10 xN(7)(5)
      + 0 xS(7)(5) + 2 xW(7)(5) + 4 xE(7)(5) + 10 xN(7)(6) + 0 xS(7)(6)
      + 2 xW(7)(6) + 3 xE(7)(6) + 10 xN(7)(7) + 0 xS(7)(7) + 2 xW(7)(7)
      + 0 xE(7)(7)
Subject To
 Restricao1: xS(1)(1) + xE(1)(1)  = 48
 c2:         - xS(1)(2) - xE(2)(1) + xN(2)(2) + xS(2)(2) + xW(2)(2) + xE(2)(2)
             - xW(2)(3) - xN(3)(2)  = -1
 c3:         - xS(1)(3) - xE(2)(2) + xN(2)(3) + xS(2)(3) + xW(2)(3) + xE(2)(3)
             - xW(2)(4) - xN(3)(3)  = -1
 c4:         - xS(1)(4) - xE(2)(3) + xN(2)(4) + xS(2)(4) + xW(2)(4) + xE(2)(4)
             - xW(2)(5) - xN(3)(4)  = -1
 c5:         - xS(1)(5) - xE(2)(4) + xN(2)(5) + xS(2)(5) + xW(2)(5) + xE(2)(5)
             - xW(2)(6) - xN(3)(5)  = -1
 c6:         - xS(1)(6) - xE(2)(5) + xN(2)(6) + xS(2)(6) + xW(2)(6) + xE(2)(6)
             - xW(2)(7) - xN(3)(6)  = -1
 c7:         - xS(2)(2) - xE(3)(1) + xN(3)(2) + xS(3)(2) + xW(3)(2) + xE(3)(2)
             - xW(3)(3) - xN(4)(2)  = -1
 c8:         - xS(2)(3) - xE(3)(2) + xN(3)(3) + xS(3)(3) + xW(3)(3) + xE(3)(3)
             - xW(3)(4) - xN(4)(3)  = -1
 c9:         - xS(2)(4) - xE(3)(3) + xN(3)(4) + xS(3)(4) + xW(3)(4) + xE(3)(4)
             - xW(3)(5) - xN(4)(4)  = -1
 c10:        - xS(2)(5) - xE(3)(4) + xN(3)(5) + xS(3)(5) + xW(3)(5) + xE(3)(5)
             - xW(3)(6) - xN(4)(5)  = -1
 c11:        - xS(2)(6) - xE(3)(5) + xN(3)(6) + xS(3)(6) + xW(3)(6) + xE(3)(6)
             - xW(3)(7) - xN(4)(6)  = -1
 c12:        - xS(3)(2) - xE(4)(1) + xN(4)(2) + xS(4)(2) + xW(4)(2) + xE(4)(2)
             - xW(4)(3) - xN(5)(2)  = -1
 c13:        - xS(3)(3) - xE(4)(2) + xN(4)(3) + xS(4)(3) + xW(4)(3) + xE(4)(3)
             - xW(4)(4) - xN(5)(3)  = -1
 c14:        - xS(3)(4) - xE(4)(3) + xN(4)(4) + xS(4)(4) + xW(4)(4) + xE(4)(4)
             - xW(4)(5) - xN(5)(4)  = -1
 c15:        - xS(3)(5) - xE(4)(4) + xN(4)(5) + xS(4)(5) + xW(4)(5) + xE(4)(5)
             - xW(4)(6) - xN(5)(5)  = -1
 c16:        - xS(3)(6) - xE(4)(5) + xN(4)(6) + xS(4)(6) + xW(4)(6) + xE(4)(6)
             - xW(4)(7) - xN(5)(6)  = -1
 c17:        - xS(4)(2) - xE(5)(1) + xN(5)(2) + xS(5)(2) + xW(5)(2) + xE(5)(2)
             - xW(5)(3) - xN(6)(2)  = -1
 c18:        - xS(4)(3) - xE(5)(2) + xN(5)(3) + xS(5)(3) + xW(5)(3) + xE(5)(3)
             - xW(5)(4) - xN(6)(3)  = -1
 c19:        - xS(4)(4) - xE(5)(3) + xN(5)(4) + xS(5)(4) + xW(5)(4) + xE(5)(4)
             - xW(5)(5) - xN(6)(4)  = -1
 c20:        - xS(4)(5) - xE(5)(4) + xN(5)(5) + xS(5)(5) + xW(5)(5) + xE(5)(5)
             - xW(5)(6) - xN(6)(5)  = -1
 c21:        - xS(4)(6) - xE(5)(5) + xN(5)(6) + xS(5)(6) + xW(5)(6) + xE(5)(6)
             - xW(5)(7) - xN(6)(6)  = -1
 c22:        - xS(5)(2) - xE(6)(1) + xN(6)(2) + xS(6)(2) + xW(6)(2) + xE(6)(2)
             - xW(6)(3) - xN(7)(2)  = -1
 c23:        - xS(5)(3) - xE(6)(2) + xN(6)(3) + xS(6)(3) + xW(6)(3) + xE(6)(3)
             - xW(6)(4) - xN(7)(3)  = -1
 c24:        - xS(5)(4) - xE(6)(3) + xN(6)(4) + xS(6)(4) + xW(6)(4) + xE(6)(4)
             - xW(6)(5) - xN(7)(4)  = -1
 c25:        - xS(5)(5) - xE(6)(4) + xN(6)(5) + xS(6)(5) + xW(6)(5) + xE(6)(5)
             - xW(6)(6) - xN(7)(5)  = -1
 c26:        - xS(5)(6) - xE(6)(5) + xN(6)(6) + xS(6)(6) + xW(6)(6) + xE(6)(6)
             - xW(6)(7) - xN(7)(6)  = -1
 Restricao3: - xE(1)(6) + xS(1)(7) + xW(1)(7) - xN(2)(7)  = -1
 Restricao4: - xS(6)(1) + xN(7)(1) + xE(7)(1) - xW(7)(2)  = -1
 Restricao5: - xS(6)(7) - xE(7)(6) + xN(7)(7) + xW(7)(7)  = -1
 c30:        - xE(1)(1) + xS(1)(2) + xW(1)(2) + xE(1)(2) - xW(1)(3) - xN(2)(2)
              = -1
 c31:        - xE(1)(2) + xS(1)(3) + xW(1)(3) + xE(1)(3) - xW(1)(4) - xN(2)(3)
              = -1
 c32:        - xE(1)(3) + xS(1)(4) + xW(1)(4) + xE(1)(4) - xW(1)(5) - xN(2)(4)
              = -1
 c33:        - xE(1)(4) + xS(1)(5) + xW(1)(5) + xE(1)(5) - xW(1)(6) - xN(2)(5)
              = -1
 c34:        - xE(1)(5) + xS(1)(6) + xW(1)(6) + xE(1)(6) - xW(1)(7) - xN(2)(6)
              = -1
 c35:        - xS(6)(2) - xE(7)(1) + xN(7)(2) + xW(7)(2) + xE(7)(2) - xW(7)(3)
              = -1
 c36:        - xS(6)(3) - xE(7)(2) + xN(7)(3) + xW(7)(3) + xE(7)(3) - xW(7)(4)
              = -1
 c37:        - xS(6)(4) - xE(7)(3) + xN(7)(4) + xW(7)(4) + xE(7)(4) - xW(7)(5)
              = -1
 c38:        - xS(6)(5) - xE(7)(4) + xN(7)(5) + xW(7)(5) + xE(7)(5) - xW(7)(6)
              = -1
 c39:        - xS(6)(6) - xE(7)(5) + xN(7)(6) + xW(7)(6) + xE(7)(6) - xW(7)(7)
              = -1
 c40:        - xS(1)(1) + xN(2)(1) + xS(2)(1) + xE(2)(1) - xW(2)(2) - xN(3)(1)
              = -1
 c41:        - xS(2)(1) + xN(3)(1) + xS(3)(1) + xE(3)(1) - xW(3)(2) - xN(4)(1)
              = -1
 c42:        - xS(3)(1) + xN(4)(1) + xS(4)(1) + xE(4)(1) - xW(4)(2) - xN(5)(1)
              = -1
 c43:        - xS(4)(1) + xN(5)(1) + xS(5)(1) + xE(5)(1) - xW(5)(2) - xN(6)(1)
              = -1
 c44:        - xS(5)(1) + xN(6)(1) + xS(6)(1) + xE(6)(1) - xW(6)(2) - xN(7)(1)
              = -1
 c45:        - xS(1)(7) - xE(2)(6) + xN(2)(7) + xS(2)(7) + xW(2)(7) - xN(3)(7)
              = -1
 c46:        - xS(2)(7) - xE(3)(6) + xN(3)(7) + xS(3)(7) + xW(3)(7) - xN(4)(7)
              = -1
 c47:        - xS(3)(7) - xE(4)(6) + xN(4)(7) + xS(4)(7) + xW(4)(7) - xN(5)(7)
              = -1
 c48:        - xS(4)(7) - xE(5)(6) + xN(5)(7) + xS(5)(7) + xW(5)(7) - xN(6)(7)
              = -1
 c49:        - xS(5)(7) - xE(6)(6) + xN(6)(7) + xS(6)(7) + xW(6)(7) - xN(7)(7)
              = -1
Bounds
      xN(1)(1) >= 0
      xS(1)(1) >= 0
      xW(1)(1) >= 0
      xE(1)(1) >= 0
      xN(1)(2) >= 0
      xS(1)(2) >= 0
      xW(1)(2) >= 0
      xE(1)(2) >= 0
      xN(1)(3) >= 0
      xS(1)(3) >= 0
      xW(1)(3) >= 0
      xE(1)(3) >= 0
      xN(1)(4) >= 0
      xS(1)(4) >= 0
      xW(1)(4) >= 0
      xE(1)(4) >= 0
      xN(1)(5) >= 0
      xS(1)(5) >= 0
      xW(1)(5) >= 0
      xE(1)(5) >= 0
      xN(1)(6) >= 0
      xS(1)(6) >= 0
      xW(1)(6) >= 0
      xE(1)(6) >= 0
      xN(1)(7) >= 0
      xS(1)(7) >= 0
      xW(1)(7) >= 0
      xE(1)(7) >= 0
      xN(2)(1) >= 0
      xS(2)(1) >= 0
      xW(2)(1) >= 0
      xE(2)(1) >= 0
      xN(2)(2) >= 0
      xS(2)(2) >= 0
      xW(2)(2) >= 0
      xE(2)(2) >= 0
      xN(2)(3) >= 0
      xS(2)(3) >= 0
      xW(2)(3) >= 0
      xE(2)(3) >= 0
      xN(2)(4) >= 0
      xS(2)(4) >= 0
      xW(2)(4) >= 0
      xE(2)(4) >= 0
      xN(2)(5) >= 0
      xS(2)(5) >= 0
      xW(2)(5) >= 0
      xE(2)(5) >= 0
      xN(2)(6) >= 0
      xS(2)(6) >= 0
      xW(2)(6) >= 0
      xE(2)(6) >= 0
      xN(2)(7) >= 0
      xS(2)(7) >= 0
      xW(2)(7) >= 0
      xE(2)(7) >= 0
      xN(3)(1) >= 0
      xS(3)(1) >= 0
      xW(3)(1) >= 0
      xE(3)(1) >= 0
      xN(3)(2) >= 0
      xS(3)(2) >= 0
      xW(3)(2) >= 0
      xE(3)(2) >= 0
      xN(3)(3) >= 0
      xS(3)(3) >= 0
      xW(3)(3) >= 0
      xE(3)(3) >= 0
      xN(3)(4) >= 0
      xS(3)(4) >= 0
      xW(3)(4) >= 0
      xE(3)(4) >= 0
      xN(3)(5) >= 0
      xS(3)(5) >= 0
      xW(3)(5) >= 0
      xE(3)(5) >= 0
      xN(3)(6) >= 0
      xS(3)(6) >= 0
      xW(3)(6) >= 0
      xE(3)(6) >= 0
      xN(3)(7) >= 0
      xS(3)(7) >= 0
      xW(3)(7) >= 0
      xE(3)(7) >= 0
      xN(4)(1) >= 0
      xS(4)(1) >= 0
      xW(4)(1) >= 0
      xE(4)(1) >= 0
      xN(4)(2) >= 0
      xS(4)(2) >= 0
      xW(4)(2) >= 0
      xE(4)(2) >= 0
      xN(4)(3) >= 0
      xS(4)(3) >= 0
      xW(4)(3) >= 0
      xE(4)(3) >= 0
      xN(4)(4) >= 0
      xS(4)(4) >= 0
      xW(4)(4) >= 0
      xE(4)(4) >= 0
      xN(4)(5) >= 0
      xS(4)(5) >= 0
      xW(4)(5) >= 0
      xE(4)(5) >= 0
      xN(4)(6) >= 0
      xS(4)(6) >= 0
      xW(4)(6) >= 0
      xE(4)(6) >= 0
      xN(4)(7) >= 0
      xS(4)(7) >= 0
      xW(4)(7) >= 0
      xE(4)(7) >= 0
      xN(5)(1) >= 0
      xS(5)(1) >= 0
      xW(5)(1) >= 0
      xE(5)(1) >= 0
      xN(5)(2) >= 0
      xS(5)(2) >= 0
      xW(5)(2) >= 0
      xE(5)(2) >= 0
      xN(5)(3) >= 0
      xS(5)(3) >= 0
      xW(5)(3) >= 0
      xE(5)(3) >= 0
      xN(5)(4) >= 0
      xS(5)(4) >= 0
      xW(5)(4) >= 0
      xE(5)(4) >= 0
      xN(5)(5) >= 0
      xS(5)(5) >= 0
      xW(5)(5) >= 0
      xE(5)(5) >= 0
      xN(5)(6) >= 0
      xS(5)(6) >= 0
      xW(5)(6) >= 0
      xE(5)(6) >= 0
      xN(5)(7) >= 0
      xS(5)(7) >= 0
      xW(5)(7) >= 0
      xE(5)(7) >= 0
      xN(6)(1) >= 0
      xS(6)(1) >= 0
      xW(6)(1) >= 0
      xE(6)(1) >= 0
      xN(6)(2) >= 0
      xS(6)(2) >= 0
      xW(6)(2) >= 0
      xE(6)(2) >= 0
      xN(6)(3) >= 0
      xS(6)(3) >= 0
      xW(6)(3) >= 0
      xE(6)(3) >= 0
      xN(6)(4) >= 0
      xS(6)(4) >= 0
      xW(6)(4) >= 0
      xE(6)(4) >= 0
      xN(6)(5) >= 0
      xS(6)(5) >= 0
      xW(6)(5) >= 0
      xE(6)(5) >= 0
      xN(6)(6) >= 0
      xS(6)(6) >= 0
      xW(6)(6) >= 0
      xE(6)(6) >= 0
      xN(6)(7) >= 0
      xS(6)(7) >= 0
      xW(6)(7) >= 0
      xE(6)(7) >= 0
      xN(7)(1) >= 0
      xS(7)(1) >= 0
      xW(7)(1) >= 0
      xE(7)(1) >= 0
      xN(7)(2) >= 0
      xS(7)(2) >= 0
      xW(7)(2) >= 0
      xE(7)(2) >= 0
      xN(7)(3) >= 0
      xS(7)(3) >= 0
      xW(7)(3) >= 0
      xE(7)(3) >= 0
      xN(7)(4) >= 0
      xS(7)(4) >= 0
      xW(7)(4) >= 0
      xE(7)(4) >= 0
      xN(7)(5) >= 0
      xS(7)(5) >= 0
      xW(7)(5) >= 0
      xE(7)(5) >= 0
      xN(7)(6) >= 0
      xS(7)(6) >= 0
      xW(7)(6) >= 0
      xE(7)(6) >= 0
      xN(7)(7) >= 0
      xS(7)(7) >= 0
      xW(7)(7) >= 0
      xE(7)(7) >= 0
Generals
 xN(1)(1)  xS(1)(1)  xW(1)(1)  xE(1)(1)  xN(1)(2)  xS(1)(2)  xW(1)(2) 
 xE(1)(2)  xN(1)(3)  xS(1)(3)  xW(1)(3)  xE(1)(3)  xN(1)(4)  xS(1)(4) 
 xW(1)(4)  xE(1)(4)  xN(1)(5)  xS(1)(5)  xW(1)(5)  xE(1)(5)  xN(1)(6) 
 xS(1)(6)  xW(1)(6)  xE(1)(6)  xN(1)(7)  xS(1)(7)  xW(1)(7)  xE(1)(7) 
 xN(2)(1)  xS(2)(1)  xW(2)(1)  xE(2)(1)  xN(2)(2)  xS(2)(2)  xW(2)(2) 
 xE(2)(2)  xN(2)(3)  xS(2)(3)  xW(2)(3)  xE(2)(3)  xN(2)(4)  xS(2)(4) 
 xW(2)(4)  xE(2)(4)  xN(2)(5)  xS(2)(5)  xW(2)(5)  xE(2)(5)  xN(2)(6) 
 xS(2)(6)  xW(2)(6)  xE(2)(6)  xN(2)(7)  xS(2)(7)  xW(2)(7)  xE(2)(7) 
 xN(3)(1)  xS(3)(1)  xW(3)(1)  xE(3)(1)  xN(3)(2)  xS(3)(2)  xW(3)(2) 
 xE(3)(2)  xN(3)(3)  xS(3)(3)  xW(3)(3)  xE(3)(3)  xN(3)(4)  xS(3)(4) 
 xW(3)(4)  xE(3)(4)  xN(3)(5)  xS(3)(5)  xW(3)(5)  xE(3)(5)  xN(3)(6) 
 xS(3)(6)  xW(3)(6)  xE(3)(6)  xN(3)(7)  xS(3)(7)  xW(3)(7)  xE(3)(7) 
 xN(4)(1)  xS(4)(1)  xW(4)(1)  xE(4)(1)  xN(4)(2)  xS(4)(2)  xW(4)(2) 
 xE(4)(2)  xN(4)(3)  xS(4)(3)  xW(4)(3)  xE(4)(3)  xN(4)(4)  xS(4)(4) 
 xW(4)(4)  xE(4)(4)  xN(4)(5)  xS(4)(5)  xW(4)(5)  xE(4)(5)  xN(4)(6) 
 xS(4)(6)  xW(4)(6)  xE(4)(6)  xN(4)(7)  xS(4)(7)  xW(4)(7)  xE(4)(7) 
 xN(5)(1)  xS(5)(1)  xW(5)(1)  xE(5)(1)  xN(5)(2)  xS(5)(2)  xW(5)(2) 
 xE(5)(2)  xN(5)(3)  xS(5)(3)  xW(5)(3)  xE(5)(3)  xN(5)(4)  xS(5)(4) 
 xW(5)(4)  xE(5)(4)  xN(5)(5)  xS(5)(5)  xW(5)(5)  xE(5)(5)  xN(5)(6) 
 xS(5)(6)  xW(5)(6)  xE(5)(6)  xN(5)(7)  xS(5)(7)  xW(5)(7)  xE(5)(7) 
 xN(6)(1)  xS(6)(1)  xW(6)(1)  xE(6)(1)  xN(6)(2)  xS(6)(2)  xW(6)(2) 
 xE(6)(2)  xN(6)(3)  xS(6)(3)  xW(6)(3)  xE(6)(3)  xN(6)(4)  xS(6)(4) 
 xW(6)(4)  xE(6)(4)  xN(6)(5)  xS(6)(5)  xW(6)(5)  xE(6)(5)  xN(6)(6) 
 xS(6)(6)  xW(6)(6)  xE(6)(6)  xN(6)(7)  xS(6)(7)  xW(6)(7)  xE(6)(7) 
 xN(7)(1)  xS(7)(1)  xW(7)(1)  xE(7)(1)  xN(7)(2)  xS(7)(2)  xW(7)(2) 
 xE(7)(2)  xN(7)(3)  xS(7)(3)  xW(7)(3)  xE(7)(3)  xN(7)(4)  xS(7)(4) 
 xW(7)(4)  xE(7)(4)  xN(7)(5)  xS(7)(5)  xW(7)(5)  xE(7)(5)  xN(7)(6) 
 xS(7)(6)  xW(7)(6)  xE(7)(6)  xN(7)(7)  xS(7)(7)  xW(7)(7)  xE(7)(7) 
End
